language ESSENCE' 1.0

letting jobs = 102
letting horizon = 790
letting resourcesRenew = 2
letting resourcesNonrenew = 2
letting resourceLimits = [16, 19, 470, 461]
letting successors = [[2, 3, 4, 5, 6, 7, 8, 9, 10, 11, 12, 13, 14, 15, 17, 18, 19, 21, 22, 24, 28, 29], [57, 46, 41, 40, 37, 36, 35, 33, 20, 16], [57, 47, 46, 42, 40, 31, 30, 25, 20], [62, 60, 53, 52, 48, 46, 42, 36, 33, 32, 31, 23], [57, 53, 50, 46, 45, 42, 40, 37, 36, 34, 30, 27], [57, 33, 32, 27, 16], [63, 57, 52, 50, 46, 43, 40, 39, 38, 34, 31, 30], [67, 57, 52, 48, 47, 40, 35, 31, 26], [68, 62, 57, 53, 50, 47, 46, 45, 42, 41, 39, 31], [62, 50, 42, 40, 31, 20], [76, 62, 57, 53, 52, 50, 49, 48, 47, 45, 38, 33], [76, 62, 57, 53, 52, 49, 48, 47, 46, 45, 36, 31], [68, 62, 60, 52, 45, 41, 40, 39, 38, 31], [79, 62, 60, 53, 48, 45, 44, 41, 36, 33], [79, 68, 62, 57, 53, 50, 45, 42, 39, 38], [69, 68, 63, 62, 61, 60, 53, 47, 42, 39, 38], [79, 69, 68, 66, 58, 54, 53, 50, 48, 46, 42, 37], [76, 69, 68, 67, 60, 52, 48, 46, 38, 35, 31], [68, 62, 61, 58, 53, 52, 50, 48, 46, 45, 42], [76, 68, 66, 61, 60, 54, 53, 52, 49, 48, 45, 39], [73, 62, 48, 45, 42, 31], [69, 68, 63, 62, 61, 59, 55, 54, 48, 34], [76, 67, 59, 57, 45, 43, 41], [79, 76, 69, 66, 63, 61, 55, 51, 49, 48, 46, 39], [73, 62, 55, 50, 48, 38], [76, 72, 68, 66, 62, 60, 53, 49, 46, 45], [79, 69, 67, 64, 62, 59, 51, 48, 43], [76, 74, 72, 67, 66, 64, 60, 58, 54, 51, 47], [81, 76, 73, 63, 61, 59, 58, 56, 54, 51, 44], [85, 81, 76, 73, 70, 69, 68, 67, 66, 64, 62, 61, 59, 56], [81, 79, 74, 66, 64, 61, 58, 56, 55, 54, 51], [101, 79, 67, 61, 58, 56, 54, 45], [101, 81, 74, 73, 69, 68, 64, 63, 61, 58, 56, 54], [87, 81, 79, 78, 76, 73, 72, 67, 66, 64, 58, 49], [101, 87, 81, 79, 74, 73, 72, 62, 59, 58, 56, 54], [67, 66, 64, 61, 59, 56, 55, 51], [101, 81, 76, 72, 70, 63, 62, 59, 55, 49], [81, 72, 66, 64, 58, 56, 54, 51], [101, 86, 85, 81, 78, 74, 73, 70, 67, 64, 58, 56], [97, 81, 76, 74, 72, 64, 56, 55, 54], [101, 87, 81, 74, 72, 70, 63, 58, 49], [101, 87, 81, 76, 70, 64, 59, 49], [87, 86, 78, 74, 73, 70, 68, 66, 61, 58], [99, 87, 86, 85, 84, 80, 78, 77, 75, 68, 66, 65, 64], [97, 96, 87, 78, 69, 64, 63, 55], [99, 97, 87, 78, 77, 70, 64, 56], [87, 79, 78, 56, 55], [101, 98, 96, 95, 93, 86, 85, 77, 74, 72, 70, 65], [99, 97, 86, 85, 77, 56], [100, 98, 85, 67, 60, 59], [101, 100, 99, 98, 97, 96, 94, 93, 87, 86, 85, 80, 71, 70], [98, 97, 84, 79, 70, 59], [100, 99, 96, 94, 93, 92, 85, 78, 75, 73], [99, 98, 96, 93, 86, 85, 78, 75, 71, 70], [100, 98, 95, 86, 85, 80, 77, 65], [100, 96, 93, 84, 80, 75, 65], [96, 95, 91, 86, 84, 83, 80, 77, 71], [100, 98, 97, 93, 91, 77, 75, 71], [99, 96, 93, 92, 91, 83, 78, 77], [91, 87, 83, 81, 77, 71], [99, 97, 92, 83, 75, 72], [97, 95, 92, 91, 88, 86, 77], [93, 91, 85, 84, 80, 71], [98, 95, 93, 92, 91, 89, 88, 82], [91, 83, 71], [101, 100, 94, 92, 91, 89, 88], [99, 97, 94, 93, 92, 91, 90], [97, 96, 95, 89, 88, 82], [99, 92, 91, 89, 84], [92, 91, 89, 88], [92, 89, 82], [91, 89, 84], [97, 91, 84], [100, 91, 82], [95, 90, 88], [99, 98, 89], [94, 82], [89, 82], [89, 83], [92, 90], [93, 88], [90], [88], [88], [88], [89], [89], [102], [102], [102], [102], [102], [102], [102], [102], [102], [102], [102], [102], [102], [102], []]
letting durations = [[0], [1, 5, 6], [2, 4, 5], [1, 5, 7], [1, 2, 3], [1, 7, 8], [5, 8, 8], [3, 3, 4], [3, 5, 10], [1, 2, 3], [7, 9, 10], [3, 6, 9], [1, 1, 5], [5, 7, 8], [5, 6, 8], [5, 8, 9], [2, 5, 7], [2, 6, 9], [4, 7, 8], [2, 5, 8], [2, 4, 10], [2, 3, 7], [2, 6, 6], [1, 5, 9], [4, 7, 7], [2, 5, 9], [4, 5, 9], [1, 4, 4], [6, 7, 9], [4, 5, 7], [3, 8, 9], [1, 7, 9], [4, 5, 10], [6, 7, 10], [2, 6, 7], [1, 5, 10], [3, 4, 5], [5, 6, 7], [3, 7, 8], [3, 10, 10], [3, 4, 8], [8, 8, 10], [6, 7, 8], [1, 3, 4], [2, 7, 8], [4, 5, 7], [4, 4, 5], [4, 6, 9], [2, 8, 9], [3, 3, 4], [2, 6, 10], [3, 7, 8], [4, 6, 9], [1, 2, 10], [2, 3, 10], [5, 5, 9], [8, 9, 10], [4, 5, 7], [2, 3, 9], [1, 4, 5], [1, 4, 6], [7, 8, 10], [1, 4, 8], [5, 7, 8], [1, 2, 10], [3, 4, 5], [2, 4, 8], [1, 2, 5], [5, 7, 10], [1, 8, 9], [5, 6, 10], [6, 8, 8], [1, 6, 10], [7, 8, 10], [1, 2, 3], [3, 3, 10], [1, 4, 5], [2, 3, 10], [6, 9, 9], [6, 9, 10], [1, 3, 10], [5, 8, 9], [1, 3, 7], [1, 2, 3], [5, 7, 8], [3, 9, 10], [6, 7, 9], [5, 8, 10], [2, 6, 9], [1, 3, 4], [4, 5, 8], [1, 6, 10], [3, 4, 7], [2, 7, 9], [5, 6, 7], [1, 5, 6], [1, 3, 9], [5, 6, 8], [6, 8, 9], [2, 6, 8], [4, 10, 10], [0]]
letting resourceUsage = [[[0, 0, 0, 0]], [[4, 0, 9, 6], [0, 2, 4, 6], [0, 2, 3, 6]], [[3, 0, 8, 6], [0, 4, 7, 5], [0, 4, 3, 4]], [[0, 2, 3, 6], [2, 0, 3, 6], [2, 0, 2, 6]], [[3, 0, 7, 8], [3, 0, 5, 6], [0, 2, 3, 6]], [[0, 3, 2, 4], [2, 0, 2, 4], [0, 3, 1, 3]], [[0, 3, 5, 7], [0, 3, 2, 7], [1, 0, 2, 4]], [[5, 0, 5, 10], [0, 4, 3, 8], [0, 3, 2, 8]], [[0, 2, 4, 8], [0, 2, 4, 6], [0, 2, 2, 2]], [[0, 4, 8, 8], [0, 2, 6, 6], [0, 2, 3, 1]], [[1, 0, 5, 10], [1, 0, 4, 9], [0, 2, 3, 9]], [[0, 4, 3, 9], [0, 3, 3, 9], [0, 3, 2, 8]], [[5, 0, 5, 5], [0, 1, 4, 5], [3, 0, 3, 3]], [[2, 0, 5, 9], [0, 3, 5, 3], [0, 1, 4, 2]], [[4, 0, 7, 5], [3, 0, 5, 3], [3, 0, 3, 2]], [[0, 1, 7, 7], [4, 0, 7, 4], [3, 0, 7, 2]], [[0, 1, 10, 9], [3, 0, 10, 8], [0, 1, 10, 4]], [[0, 4, 5, 7], [0, 4, 5, 6], [4, 0, 4, 3]], [[3, 0, 2, 8], [0, 5, 2, 6], [0, 5, 1, 6]], [[4, 0, 7, 10], [4, 0, 4, 10], [3, 0, 3, 10]], [[0, 5, 9, 8], [0, 3, 8, 6], [0, 3, 8, 5]], [[0, 3, 6, 8], [0, 2, 4, 6], [3, 0, 4, 5]], [[5, 0, 6, 8], [4, 0, 5, 5], [0, 2, 4, 2]], [[2, 0, 7, 9], [2, 0, 3, 4], [0, 1, 2, 1]], [[2, 0, 5, 5], [2, 0, 3, 4], [0, 2, 2, 4]], [[5, 0, 7, 2], [0, 2, 6, 1], [0, 1, 6, 1]], [[0, 4, 5, 4], [3, 0, 2, 3], [0, 4, 2, 3]], [[2, 0, 5, 10], [0, 1, 3, 9], [2, 0, 2, 9]], [[0, 5, 5, 4], [3, 0, 3, 3], [2, 0, 3, 2]], [[0, 3, 6, 1], [1, 0, 6, 1], [0, 2, 6, 1]], [[3, 0, 7, 5], [3, 0, 7, 4], [3, 0, 7, 2]], [[5, 0, 7, 6], [3, 0, 4, 3], [3, 0, 4, 2]], [[0, 5, 2, 5], [0, 5, 2, 4], [2, 0, 2, 3]], [[5, 0, 4, 9], [0, 2, 4, 9], [3, 0, 4, 9]], [[0, 3, 7, 8], [4, 0, 6, 8], [4, 0, 3, 5]], [[0, 2, 3, 6], [0, 1, 2, 4], [1, 0, 2, 1]], [[4, 0, 4, 9], [0, 2, 3, 7], [0, 1, 3, 7]], [[0, 1, 7, 8], [0, 1, 6, 7], [2, 0, 5, 5]], [[2, 0, 8, 10], [1, 0, 8, 4], [1, 0, 8, 3]], [[0, 5, 7, 8], [3, 0, 6, 6], [0, 3, 4, 5]], [[3, 0, 7, 4], [3, 0, 7, 2], [0, 1, 7, 1]], [[0, 4, 7, 3], [1, 0, 7, 2], [0, 2, 6, 1]], [[4, 0, 7, 5], [4, 0, 6, 2], [3, 0, 5, 2]], [[3, 0, 8, 5], [0, 3, 4, 5], [0, 2, 3, 5]], [[0, 5, 9, 8], [0, 4, 7, 4], [0, 3, 6, 4]], [[0, 3, 9, 8], [0, 3, 8, 8], [0, 2, 7, 8]], [[3, 0, 3, 10], [0, 3, 2, 8], [0, 3, 1, 8]], [[0, 4, 7, 6], [3, 0, 6, 4], [0, 3, 1, 3]], [[3, 0, 10, 7], [3, 0, 8, 7], [3, 0, 6, 3]], [[4, 0, 8, 7], [0, 5, 7, 6], [4, 0, 7, 5]], [[0, 4, 7, 8], [1, 0, 6, 8], [0, 4, 5, 8]], [[0, 3, 9, 7], [3, 0, 8, 7], [2, 0, 7, 5]], [[2, 0, 6, 9], [2, 0, 4, 9], [0, 1, 3, 7]], [[0, 4, 5, 3], [3, 0, 3, 1], [0, 3, 2, 1]], [[3, 0, 10, 8], [0, 1, 6, 5], [0, 1, 4, 4]], [[2, 0, 8, 5], [0, 1, 8, 4], [0, 1, 8, 3]], [[0, 1, 6, 7], [0, 1, 2, 6], [5, 0, 2, 6]], [[0, 3, 9, 10], [0, 3, 6, 6], [0, 3, 2, 5]], [[1, 0, 8, 2], [0, 4, 5, 1], [1, 0, 3, 1]], [[0, 3, 9, 6], [0, 3, 8, 4], [2, 0, 8, 4]], [[4, 0, 4, 8], [0, 1, 4, 8], [2, 0, 3, 8]], [[3, 0, 10, 3], [3, 0, 6, 2], [3, 0, 6, 1]], [[0, 1, 8, 10], [1, 0, 8, 8], [1, 0, 7, 7]], [[2, 0, 10, 2], [2, 0, 7, 2], [0, 4, 4, 2]], [[0, 3, 6, 8], [3, 0, 4, 3], [3, 0, 2, 2]], [[5, 0, 6, 6], [5, 0, 5, 6], [5, 0, 3, 6]], [[0, 3, 7, 7], [5, 0, 7, 6], [0, 2, 6, 5]], [[0, 3, 7, 6], [0, 3, 6, 6], [2, 0, 4, 5]], [[4, 0, 9, 2], [3, 0, 7, 2], [2, 0, 5, 2]], [[0, 2, 7, 3], [0, 2, 6, 3], [0, 2, 5, 1]], [[4, 0, 7, 3], [2, 0, 7, 2], [2, 0, 7, 1]], [[0, 2, 3, 4], [4, 0, 2, 3], [0, 2, 2, 3]], [[0, 3, 7, 7], [0, 3, 7, 3], [0, 1, 4, 3]], [[3, 0, 1, 4], [3, 0, 1, 3], [3, 0, 1, 2]], [[4, 0, 5, 7], [0, 2, 3, 6], [0, 1, 2, 5]], [[0, 2, 6, 8], [2, 0, 3, 4], [2, 0, 2, 3]], [[3, 0, 10, 6], [3, 0, 6, 5], [0, 4, 5, 5]], [[3, 0, 9, 2], [3, 0, 7, 2], [0, 2, 7, 2]], [[5, 0, 8, 8], [0, 2, 7, 4], [5, 0, 6, 3]], [[0, 4, 6, 8], [3, 0, 5, 8], [0, 3, 4, 7]], [[0, 5, 8, 2], [0, 4, 7, 2], [0, 4, 7, 1]], [[0, 2, 7, 2], [2, 0, 5, 1], [0, 2, 2, 1]], [[5, 0, 3, 7], [3, 0, 3, 7], [0, 1, 3, 7]], [[0, 3, 8, 4], [0, 3, 8, 3], [0, 3, 7, 2]], [[2, 0, 9, 8], [0, 4, 7, 7], [0, 3, 7, 7]], [[4, 0, 6, 1], [3, 0, 3, 1], [2, 0, 3, 1]], [[0, 3, 7, 4], [1, 0, 5, 3], [0, 3, 4, 3]], [[5, 0, 8, 1], [5, 0, 5, 1], [5, 0, 2, 1]], [[4, 0, 7, 1], [0, 1, 5, 1], [2, 0, 3, 1]], [[0, 3, 9, 8], [0, 2, 8, 8], [0, 2, 8, 7]], [[0, 5, 5, 6], [0, 5, 3, 4], [4, 0, 2, 2]], [[3, 0, 9, 8], [0, 2, 6, 7], [0, 2, 4, 6]], [[0, 3, 2, 7], [0, 2, 2, 7], [0, 2, 2, 6]], [[0, 4, 5, 8], [3, 0, 4, 5], [0, 1, 3, 5]], [[3, 0, 4, 7], [3, 0, 3, 6], [3, 0, 3, 5]], [[0, 2, 6, 5], [1, 0, 4, 2], [1, 0, 2, 1]], [[3, 0, 10, 3], [0, 3, 9, 3], [0, 1, 9, 1]], [[0, 2, 9, 9], [0, 2, 7, 7], [2, 0, 7, 6]], [[0, 5, 5, 8], [0, 5, 5, 7], [2, 0, 5, 8]], [[4, 0, 6, 7], [0, 2, 5, 5], [0, 1, 4, 5]], [[0, 3, 5, 5], [0, 2, 3, 4], [2, 0, 3, 4]], [[0, 0, 0, 0]]]
